* ENCODING=ISO-8859-1
NAME          CPLEX
ROWS
 N  obj1    
 G  c1      
 G  c2      
 G  c3      
 G  c4      
 G  c5      
 G  c6      
 G  c7      
 G  c8      
 G  c9      
 G  c10     
 G  c11     
 G  c12     
 G  c13     
 G  c14     
 G  c15     
 G  c16     
 G  c17     
 G  c18     
 G  c19     
 G  c20     
 G  c21     
 G  c22     
 G  c23     
 G  c24     
 G  c25     
 G  c26     
 G  c27     
 G  c28     
 G  c29     
 G  c30     
 G  c31     
 G  c32     
 G  c33     
 G  c34     
 G  c35     
COLUMNS
    MARK0000  'MARKER'                 'INTORG'
    x1        obj1                            1
    x1        c9                            531
    x1        c17                           852
    x1        c21                           815
    x1        c26                           993
    x1        c27                           998
    x2        obj1                            1
    x2        c5                            422
    x2        c10                           478
    x2        c24                           476
    x2        c28                           400
    x2        c30                           815
    x3        obj1                            1
    x3        c4                            301
    x3        c10                           995
    x3        c21                           236
    x3        c34                           172
    x4        obj1                            1
    x4        c2                            175
    x4        c9                            968
    x4        c14                           516
    x4        c32                           437
    x5        obj1                            1
    x5        c8                            892
    x5        c17                           446
    x6        obj1                            1
    x6        c30                           982
    x6        c34                           697
    x7        obj1                            1
    x7        c26                           586
    x8        obj1                            1
    x8        c12                           441
    x8        c31                           770
    x9        obj1                            1
    x9        c10                           291
    x9        c22                           413
    x10       obj1                            1
    x10       c19                           240
    x10       c35                           495
    x11       obj1                            1
    x11       c31                           154
    x12       obj1                            1
    x12       c11                           230
    x12       c17                           767
    x12       c28                           661
    x13       obj1                            1
    x13       c6                            974
    x13       c21                           467
    x13       c23                           717
    x13       c34                           181
    x14       obj1                            1
    x15       obj1                            1
    x15       c2                            307
    x15       c8                            616
    x15       c19                           760
    x15       c22                           627
    x15       c24                           734
    x15       c26                           748
    x16       obj1                            1
    x16       c11                           353
    x16       c12                           627
    x16       c13                           641
    x16       c34                           859
    x17       obj1                            1
    x17       c2                            574
    x17       c14                           100
    x17       c19                           348
    x17       c21                           892
    x17       c27                           603
    x17       c33                           416
    x18       obj1                            1
    x18       c16                           147
    x18       c24                           762
    x19       obj1                            1
    x19       c9                            277
    x19       c18                           369
    x19       c22                           628
    x19       c27                           383
    x19       c32                           564
    x20       obj1                            1
    x20       c8                            707
    x20       c9                            893
    x20       c15                           421
    x21       obj1                            1
    x21       c2                            287
    x21       c5                            854
    x21       c26                           478
    x21       c27                           557
    x21       c28                           338
    x21       c35                           695
    x22       obj1                            1
    x22       c1                            330
    x22       c11                           979
    x22       c29                           820
    x23       obj1                            1
    x23       c14                           984
    x23       c27                           663
    x24       obj1                            1
    x24       c18                           859
    x24       c19                           352
    x24       c24                           558
    x25       obj1                            1
    x25       c11                           679
    x25       c18                           646
    x25       c30                           313
    x25       c34                           214
    x26       obj1                            1
    x26       c24                           918
    x27       obj1                            1
    x27       c6                            336
    x27       c12                           773
    x27       c21                           168
    x27       c25                           988
    x27       c26                           357
    x27       c33                           481
    x28       obj1                            1
    x28       c3                            392
    x28       c6                            410
    x28       c34                           652
    x29       obj1                            1
    x29       c1                            866
    x29       c7                            212
    x29       c22                           501
    x29       c31                           247
    x30       obj1                            1
    x30       c13                           409
    x30       c15                           689
    x30       c25                           149
    x30       c30                           745
    x31       obj1                            1
    x31       c3                            352
    x31       c26                           367
    x32       obj1                            1
    x32       c18                           873
    x33       obj1                            1
    x33       c20                           609
    x33       c21                           390
    x34       obj1                            1
    x34       c1                            388
    x34       c3                            795
    x34       c7                            890
    x34       c8                            389
    x34       c14                           438
    x35       obj1                            1
    x35       c21                           375
    x35       c23                           519
    x35       c27                           330
    x35       c29                           843
    x36       obj1                            1
    x36       c4                            815
    x36       c10                           620
    x36       c13                           754
    x36       c15                           622
    x36       c18                           190
    x36       c20                           434
    x36       c28                           111
    x36       c35                           632
    x37       obj1                            1
    x37       c15                           381
    x37       c19                           294
    x37       c22                           527
    x37       c23                           239
    x37       c31                           505
    x37       c32                           679
    x38       obj1                            1
    x38       c5                            239
    x38       c9                            272
    x38       c13                           583
    x38       c20                           433
    x38       c23                           781
    x38       c27                           811
    x39       obj1                            1
    x39       c4                            833
    x40       obj1                            1
    x40       c14                           190
    x40       c18                           892
    x40       c22                           742
    x40       c24                           606
    x40       c28                           431
    x40       c33                           102
    x41       obj1                            1
    x41       c8                            197
    x41       c27                           388
    x41       c29                           215
    x42       obj1                            1
    x42       c14                           793
    x42       c17                           125
    x42       c24                           199
    x42       c30                           408
    x43       obj1                            1
    x43       c31                           903
    x44       obj1                            1
    x44       c13                           523
    x44       c14                           545
    x44       c15                           477
    x45       obj1                            1
    x45       c1                            768
    x45       c13                           664
    x45       c16                           669
    x45       c26                           974
    x46       obj1                            1
    x46       c11                           498
    x46       c13                           800
    x46       c24                           147
    x47       obj1                            1
    x47       c18                           915
    x47       c32                           186
    x48       obj1                            1
    x48       c3                            539
    x48       c6                            439
    x48       c18                           865
    x48       c24                           369
    x48       c28                           550
    x49       obj1                            1
    x49       c16                           858
    x50       obj1                            1
    x50       c14                           103
    x50       c15                           897
    x50       c16                           907
    x50       c23                           471
    x51       obj1                            1
    x51       c24                           583
    x51       c27                           667
    x51       c34                           142
    x52       obj1                            1
    x52       c19                           296
    x52       c33                           384
    x53       obj1                            1
    x53       c2                            295
    x53       c4                            732
    x53       c30                           711
    x54       obj1                            1
    x54       c17                           768
    x55       obj1                            1
    x55       c14                           941
    x55       c22                           323
    x55       c23                           597
    x55       c31                           416
    x56       obj1                            1
    x56       c2                            737
    x56       c7                            537
    x56       c14                           872
    x56       c17                           522
    x56       c20                           370
    x56       c22                           625
    x57       obj1                            1
    x57       c9                            267
    x57       c11                           119
    x57       c19                           475
    x57       c21                           999
    x57       c22                           167
    x57       c25                           177
    x57       c31                           479
    x57       c32                           245
    x58       obj1                            1
    x58       c8                            159
    x58       c33                           714
    x59       obj1                            1
    x59       c7                            640
    x59       c35                           547
    x60       obj1                            1
    x60       c19                           253
    x60       c29                           589
    x61       obj1                            1
    x61       c23                           361
    x61       c30                           289
    x62       obj1                            1
    x62       c31                           946
    x62       c34                           723
    x63       obj1                            1
    x63       c7                            975
    x63       c32                           998
    x64       obj1                            1
    x64       c20                           365
    x64       c28                           231
    x64       c35                           872
    x65       obj1                            1
    x65       c6                            330
    x65       c21                           682
    x65       c25                           302
    x66       obj1                            1
    x66       c11                           993
    x66       c28                           196
    x67       obj1                            1
    x67       c5                            962
    x67       c19                           926
    x68       obj1                            1
    x68       c12                           806
    x69       obj1                            1
    x69       c17                          1000
    x70       obj1                            1
    x70       c18                           365
    x70       c22                           330
    MARK0001  'MARKER'                 'INTEND'
RHS
    rhs       c1                           1176
    rhs       c2                           1188
    rhs       c3                           1039
    rhs       c4                           1341
    rhs       c5                           1239
    rhs       c6                           1245
    rhs       c7                           1627
    rhs       c8                           1480
    rhs       c9                           1604
    rhs       c10                          1192
    rhs       c11                          1926
    rhs       c12                          1324
    rhs       c13                          2187
    rhs       c14                          2741
    rhs       c15                          1744
    rhs       c16                          1291
    rhs       c17                          2240
    rhs       c18                          2987
    rhs       c19                          1972
    rhs       c20                          1106
    rhs       c21                          2512
    rhs       c22                          2442
    rhs       c23                          1843
    rhs       c24                          2676
    rhs       c25                           808
    rhs       c26                          2252
    rhs       c27                          2700
    rhs       c28                          1459
    rhs       c29                          1234
    rhs       c30                          2132
    rhs       c31                          2210
    rhs       c32                          1555
    rhs       c33                          1049
    rhs       c34                          1820
    rhs       c35                          1621
BOUNDS
 LI bnd       x1        0
 LI bnd       x2        0
 LI bnd       x3        0
 LI bnd       x4        0
 LI bnd       x5        0
 LI bnd       x6        0
 LI bnd       x7        0
 LI bnd       x8        0
 LI bnd       x9        0
 LI bnd       x10       0
 LI bnd       x11       0
 LI bnd       x12       0
 LI bnd       x13       0
 LI bnd       x14       0
 LI bnd       x15       0
 LI bnd       x16       0
 LI bnd       x17       0
 LI bnd       x18       0
 LI bnd       x19       0
 LI bnd       x20       0
 LI bnd       x21       0
 LI bnd       x22       0
 LI bnd       x23       0
 LI bnd       x24       0
 LI bnd       x25       0
 LI bnd       x26       0
 LI bnd       x27       0
 LI bnd       x28       0
 LI bnd       x29       0
 LI bnd       x30       0
 LI bnd       x31       0
 LI bnd       x32       0
 LI bnd       x33       0
 LI bnd       x34       0
 LI bnd       x35       0
 LI bnd       x36       0
 LI bnd       x37       0
 LI bnd       x38       0
 LI bnd       x39       0
 LI bnd       x40       0
 LI bnd       x41       0
 LI bnd       x42       0
 LI bnd       x43       0
 LI bnd       x44       0
 LI bnd       x45       0
 LI bnd       x46       0
 LI bnd       x47       0
 LI bnd       x48       0
 LI bnd       x49       0
 LI bnd       x50       0
 LI bnd       x51       0
 LI bnd       x52       0
 LI bnd       x53       0
 LI bnd       x54       0
 LI bnd       x55       0
 LI bnd       x56       0
 LI bnd       x57       0
 LI bnd       x58       0
 LI bnd       x59       0
 LI bnd       x60       0
 LI bnd       x61       0
 LI bnd       x62       0
 LI bnd       x63       0
 LI bnd       x64       0
 LI bnd       x65       0
 LI bnd       x66       0
 LI bnd       x67       0
 LI bnd       x68       0
 LI bnd       x69       0
 LI bnd       x70       0
ENDATA
